RAW/CMTT/fspd-mid/CMT4T.vrp_seed-7.out
990.3907467	21.639	166.865
