RAW/CMTT/fspd-mid/CMT4T.vrp_seed-7.sol
Route #1: 47 146 109 145 144 12
Route #2: 76 49 10 54 106 73 117 89 39 75 105 30 104 9
Route #3: 27 81 60 8 140 26 113 114 99 43 86 97 24 96 58 133
Route #4: 11 100 2 83 131 20 59 3 101 22 51 32 77
Route #5: 46 138 48 112 61 7 69 23 98 132 57 6 102
Route #6: 5 90 71 123 122 124 125 33 72 91 45 15 52 108 103
Route #7: 78 126 16 127 53 21 79 74 34 130 50 118 62 38
Route #8: 37 44 107 65 93 88 40 136 13 67 95 25 14 68
Route #9: 129 29 128 84 35 85 36 115 121 116 70 28 31 82 80 120 1 119
Route #10: 139 110 18 55 134 111 135 143 149 4 56
Route #11: 17 147 142 87 148 150 141 66 41 94 19 64 42 92 137 63
Cost 990.390747